language Essence 1.3

$ formula:  (21*n^8 - 48*n^7 - 966*n^6 + 7728*n^5 - 8211*n^4 - 72912*n^3 + 311556*n^2 - 418608*n + 241920)/60480
$ result:  2

letting length be 2
letting avoiding be {sequence(4,3,1,2), sequence(1,2,3,4)}
